width = 30;
n = 29;
dimensions = [|5, 21
|7, 25
|3, 5
|8, 5
|2, 1
|9, 9
|6, 24
|4, 10
|1, 4
|9, 16
|6, 10
|3, 6
|7, 13
|7, 12
|4, 2
|7, 5
|4, 2
|11, 5
|10, 19
|6, 11
|2, 7
|6, 5
|11, 4
|7, 7
|4, 1
|4, 23
|10, 7
|2, 12
|6, 18|];